
Gurobi 13.0.2 (win64) logging started Thu Jul 23 08:20:39 2026

Set parameter LogFile to value "E:\codes\ExactEBRP\results\gf_cplex_equivalent_gurobi_replica_round28\runs\stage3__high_imbalance_seed3202__c2_paper__300s\external\native_logs\L2.0.0.0.1.1.0.0.1_terminal_mip.gurobi.log"
Gurobi Optimizer version 13.0.2 build v13.0.2rc1 (win64 - Windows 10.0 (19045.2))

CPU model: 12th Gen Intel(R) Core(TM) i7-12700KF, instruction set [SSE2|AVX|AVX2]
Thread count: 12 physical cores, 20 logical processors, using up to 1 threads

Non-default parameters:
TimeLimit  228.6148017
MIPGap  0
MIPGapAbs  0
LogToConsole  0
Threads  1

Optimize a model with 11895 rows, 3372 columns and 67322 nonzeros (Min)
Model fingerprint: 0x48adcd74
Model has 21 linear objective coefficients
Variable types: 1683 continuous, 1689 integer (1489 binary)
Coefficient statistics:
  Matrix range     [1e-02, 2e+04]
  Objective range  [1e-02, 1e+00]
  Bounds range     [5e-01, 2e+03]
  RHS range        [5e-01, 5e+04]

Presolve removed 2401 rows and 94 columns
Presolve time: 0.19s
Presolved: 9494 rows, 3278 columns, 57790 nonzeros
Variable types: 1627 continuous, 1651 integer (1466 binary)

Root relaxation: objective 1.611296e+00, 3841 iterations, 0.22 seconds (0.57 work units)

    Nodes    |    Current Node    |     Objective Bounds      |     Work
 Expl Unexpl |  Obj  Depth IntInf | Incumbent    BestBd   Gap | It/Node Time

     0     0    1.61130    0  253          -    1.61130      -     -    0s
     0     0    1.68249    0  235          -    1.68249      -     -    0s
     0     0    1.73379    0  270          -    1.73379      -     -    1s
     0     0    1.73477    0  261          -    1.73477      -     -    1s
     0     0    1.74189    0  309          -    1.74189      -     -    1s
     0     0    1.74761    0  308          -    1.74761      -     -    1s
     0     0 infeasible    0               - infeasible      -     -    2s

Cutting planes:
  Learned: 17
  Gomory: 1
  Cover: 44
  Implied bound: 127
  Clique: 16
  MIR: 345
  StrongCG: 9
  Flow cover: 120
  GUB cover: 2
  Zero half: 6
  Network: 41
  RLT: 12
  Relax-and-lift: 65
  BQP: 8

Explored 1 nodes (13311 simplex iterations) in 2.51 seconds (4.73 work units)
Thread count was 1 (of 20 available processors)

Solution count 0

Model is infeasible
Best objective -, best bound -, gap -

User-callback calls 1186, time in user-callback 0.00 sec
